c description: Random 3-CNF over 21 variables and 89 clauses
c generator: CNFgen (0.9.2)
c copyright: (C) 2012-2022 Massimo Lauria <massimo.lauria@uniroma1.it>
c url: https://massimolauria.net/cnfgen
c command line: cnfgen --output CNF_4.28/21_bit_89_850.cnf randkcnf 3 21 89
c
p cnf 21 89
13 16 -20 0
10 11 17 0
3 -6 -15 0
-8 -10 -16 0
13 -18 -20 0
-1 -3 -19 0
-7 9 12 0
3 4 20 0
6 -18 21 0
12 -14 17 0
-14 16 21 0
-6 7 -8 0
-2 -9 -17 0
-3 -4 21 0
6 -10 21 0
-13 15 -17 0
11 12 -20 0
-6 -12 -17 0
-5 11 12 0
-4 8 18 0
5 15 -18 0
-8 10 -13 0
12 18 -21 0
8 -14 16 0
-4 9 -10 0
3 15 21 0
-9 -14 -18 0
8 -15 -19 0
1 4 17 0
-6 -9 -15 0
5 8 -11 0
-2 -15 21 0
-4 19 -21 0
-5 -10 -16 0
1 -7 9 0
2 13 19 0
2 -20 -21 0
-5 6 -15 0
4 -7 -19 0
-9 10 21 0
-3 -6 -21 0
7 14 -15 0
-2 -19 20 0
10 -14 15 0
-1 12 21 0
1 7 -13 0
3 -12 -20 0
-1 3 -11 0
6 -12 -13 0
9 -11 -13 0
8 -9 -15 0
4 -11 -21 0
6 10 11 0
-13 -16 17 0
-1 -14 21 0
5 8 -15 0
1 -17 -20 0
8 9 14 0
17 -18 20 0
6 -9 -18 0
-7 -11 -19 0
1 -9 18 0
-6 -10 20 0
-3 11 21 0
2 5 11 0
-1 -14 16 0
7 16 17 0
2 6 17 0
3 -6 -7 0
2 -11 13 0
-6 -16 17 0
-5 14 17 0
6 13 19 0
5 -12 -18 0
-8 -17 -20 0
-5 -18 21 0
17 18 19 0
2 -13 -20 0
1 -15 18 0
2 -7 -18 0
-2 -11 -13 0
-1 5 17 0
-11 -20 21 0
5 -9 -21 0
9 -14 17 0
-2 -7 11 0
8 9 10 0
10 -17 -19 0
5 10 13 0
